NAME : 10_3_3_3_(24).dat
COMMENT : Henke, Speranza, Wäscher, 2015
TYPE : MCVRP
DIMENSION : 11
EDGE_WEIGHT_TYPE : DISTANCE_MATRIX
CAPACITY : 1000
VEHICLES : 2
PRODUCT TYPES : 3
COMPARTMENTS : 3
NODE_COORD_SECTION
1 50 50
2 31.81 84.51
3 12.64 48.61
4 57.22 42.31
5 41.15 79.24
6 51.12 43.41
7 28.84 68.03
8 3.82 76.22
9 14.9 60.36
10 9.77 17.12
11 13.11 48.26
DEMAND_SECTION
1 0 0 0
2 23 47 8
3 14 47 41
4 106 10 41
5 119 84 17
6 102 94 29
7 18 2 43
8 118 92 27
9 99 12 37
10 91 37 27
11 39 12 21
DEPOT_SECTION
1
EOF